c --- [ banner ] -------------------------------------------------------------
c 
c CaDiCaL Radically Simplified CDCL SAT Solver
c Copyright (c) 2016-2021 A. Biere, M. Fleury, N. Froleyks
c 
c Version 1.5.2 ca9bff05c11bde5eae4912f9932871d1527e61d8
c g++ (GCC) 9.3.0 -Wall -Wextra -O3 -DNDEBUG
c Sun May 1 02:23:23 EDT 2022 Linux gra-login1 3.10.0-1160.59.1.el7.x86_64 x86_64
c 
c --- [ limit ] --------------------------------------------------------------
c 
c setting conflict limit to 200000 conflicts (due to '200000')
c 
c --- [ parsing input ] ------------------------------------------------------
c 
c reading DIMACS file from '12.cubes1221.adj'
c opening file to read '12.cubes1221.adj'
c found 'p cnf 5320 924210' header
c parsed 924210 clauses in 8.85 seconds process time
c closing file '12.cubes1221.adj'
c after reading 686668112 bytes 654.9 MB
c 
c --- [ options ] ------------------------------------------------------------
c 
c all options are set to their default value
c 
c --- [ solving ] ------------------------------------------------------------
c 
c time measured in process time since initialization
c 
c  seconds   reductions  redundant  irredundant
c          MB    restarts       trail      variables
c           level   conflicts       glue        remaining
c 
c *  8.85 691  0 0   0    0    0  0% 0 923580 3902 73%
c {  9.98 736  0 0   0    0    0  0% 0 923580 3902 73%
c i 11.18 750 38 0   2   91   69 51% 9 923580 3901 73%
c i 11.39 753 36 0   9  130   98 52% 12 923580 3900 73%
c i 11.67 756 41 0  15  157  122 52% 17 923580 3899 73%
c i 11.67 756 41 0  16  158  122 52% 17 923580 3898 73%
c i 11.67 756 41 0  16  159  122 52% 17 923580 3897 73%
c i 11.67 756 40 0  16  160  122 52% 17 923580 3896 73%
c i 11.67 756 40 0  17  161  122 52% 16 923580 3895 73%
c i 11.72 756 40 0  18  164  123 51% 17 923580 3894 73%
c i 11.72 756 40 0  18  165  123 51% 17 923580 3893 73%
c i 11.73 756 40 0  19  169  124 51% 17 923580 3892 73%
c i 11.73 756 40 0  19  170  124 51% 17 923580 3891 73%
c i 11.73 756 40 0  20  171  124 51% 17 923580 3890 73%
c i 11.73 756 39 0  20  172  124 51% 17 923580 3889 73%
c i 11.74 756 39 0  20  174  125 51% 17 923580 3888 73%
c i 11.78 756 39 0  21  176  126 51% 17 923580 3875 73%
c i 11.79 756 39 0  21  177  126 51% 17 923580 3874 73%
c i 11.88 757 38 0  24  187  135 50% 16 923580 3852 72%
c i 12.34 758 41 0  35  240  175 50% 19 923580 3850 72%
c 
c  seconds   reductions  redundant   irredundant
c          MB    restarts       trail       variables
c           level   conflicts       glue         remaining
c 
c i 12.46 758 42 0  39  258  189 50% 19 923580 3849 72%
c i 12.62 759 48 0  44  298  223 49% 19 923580 3848 72%
c - 14.51 695 48 1  44  302  225 49% 18 122992 3848 72%
c i 14.61 695 47 1  44  312  233 50% 18 122992 3847 72%
c i 14.68 695 47 1  46  331  250 50% 19 122992 3841 72%
c i 14.71 695 47 1  49  339  257 50% 19 122992 3840 72%
c i 14.71 695 47 1  49  340  257 50% 19 122992 3839 72%
c i 14.72 695 47 1  50  343  259 50% 19 122992 3838 72%
c i 14.75 695 46 1  53  353  268 50% 20 122992 3837 72%
c i 14.95 695 45 1  63  411  311 50% 20 122992 3836 72%
c i 15.18 695 45 1  77  509  387 51% 20 122992 3835 72%
c i 15.20 695 44 1  77  532  403 51% 20 122992 3834 72%
c i 15.21 695 44 1  77  546  413 51% 20 122992 3833 72%
c i 15.21 695 43 1  77  565  427 51% 20 122992 3832 72%
c i 15.22 695 43 1  77  567  428 51% 20 122992 3831 72%
c i 15.22 695 43 1  77  569  429 51% 20 122992 3830 72%
c i 15.26 695 50 1  84  606  460 51% 23 122992 3828 72%
c i 15.27 695 51 1  86  619  470 51% 24 122992 3827 72%
c i 15.30 695 50 1  91  642  488 52% 24 122992 3826 72%
c i 15.30 695 50 1  93  651  493 52% 24 122992 3825 72%
c 
c  seconds   reductions  redundant   irredundant
c          MB    restarts       trail       variables
c           level   conflicts       glue         remaining
c 
c i 15.38 695 43 1  97  798  600 53% 21 122992 3824 72%
c i 15.52 695 47 1 107  863  649 53% 24 122992 3823 72%
c i 15.52 695 47 1 109  868  652 53% 24 122992 3822 72%
c i 15.58 695 48 1 113  884  665 53% 24 122992 3821 72%
c i 15.58 695 48 1 113  889  668 53% 24 122992 3820 72%
c i 15.66 695 49 1 120  912  690 53% 25 122992 3819 72%
c i 15.67 695 49 1 121  915  691 53% 25 122992 3818 72%
c i 15.68 695 50 1 122  920  695 53% 25 122992 3817 72%
c i 15.73 695 50 1 130  952  720 53% 25 122992 3816 72%
c - 15.93 742 50 2 132  955  642 53% 25 122803 3816 72%
c } 15.97 742 48 2 136 1000  670 53% 25 122803 3816 72%
c [ 15.97 742  0 2 136 1000  670  0% 0 122803 3816 72%
c O 15.97 742 15 2 136 1005  669 52% 13 122803 3816 72%
c i 16.01 742 14 2 136 1133  736 58% 13 122803 3815 72%
c i 16.06 742 17 2 136 1424  890 58% 15 122803 3814 72%
c i 16.06 742 17 2 136 1425  890 58% 15 122803 3813 72%
c i 16.07 742 17 2 136 1427  891 58% 15 122803 3812 72%
c i 16.08 742 17 2 136 1485  926 57% 15 122803 3811 72%
c i 16.08 742 17 2 136 1487  923 57% 15 122803 3810 72%
c i 16.12 742 17 2 136 1696 1018 57% 15 122803 3809 72%
c 
c  seconds   reductions  redundant   irredundant
c          MB    restarts       trail       variables
c           level   conflicts       glue         remaining
c 
c - 16.27 741 18 3 136 1935  806 57% 16 122782 3809 72%
c i 16.44 741 20 3 137 2756 1253 56% 18 122782 3808 72%
c ] 16.51 741 20 3 137 3002 1393 56% 18 122782 3808 72%
c { 16.51 741 48 3 137 3002 1393 53% 25 122782 3808 72%
c F 16.63 740 48 3 137 3006 1392 25% 25 122779 3808 72%
c i 16.68 741 48 3 137 3018 1401 37% 25 122779 3807 72%
c i 16.77 741 44 3 137 3171 1500 35% 23 122779 3806 72%
c - 16.91 740 44 4 137 3241 1156 33% 23 122773 3806 72%
c i 17.00 740 46 4 140 3297 1198 33% 23 122773 3805 72%
c i 17.13 740 47 4 155 3361 1254 33% 24 122773 3804 72%
c i 17.16 740 47 4 160 3383 1271 33% 24 122773 3803 71%
c i 17.35 740 49 4 190 3520 1387 33% 26 122773 3802 71%
c i 17.36 740 49 4 190 3524 1389 33% 26 122773 3800 71%
c i 17.38 740 50 4 195 3541 1403 33% 26 122773 3799 71%
c i 17.38 740 50 4 196 3542 1403 33% 26 122773 3798 71%
c i 17.43 740 50 4 208 3593 1446 33% 26 122773 3797 71%
c i 17.67 740 49 4 235 3874 1665 35% 26 122773 3796 71%
c i 17.83 740 46 4 248 4191 1903 36% 26 122773 3795 71%
c i 17.90 740 44 4 248 4386 2051 36% 25 122773 3794 71%
c i 17.90 740 44 4 248 4388 2052 36% 25 122773 3793 71%
c 
c  seconds   reductions  redundant   irredundant
c          MB    restarts       trail       variables
c           level   conflicts       glue         remaining
c 
c i 17.94 740 43 4 248 4513 2133 36% 24 122773 3792 71%
c i 17.97 740 42 4 248 4627 2208 36% 24 122773 3791 71%
c - 18.16 739 40 5 248 4874 1704 36% 23 122728 3791 71%
c i 18.17 739 40 5 248 4888 1715 36% 23 122728 3790 71%
c d 18.40 739 40 5 251 5001 1811 36% 23 98090 3775 71%
c 2 18.44 739 40 5 251 5001 4023 36% 23 98040 3775 71%
c p 19.73 739 40 5 251 5001 10849 36% 23 98040 3667 69%
c d 19.87 739 40 5 251 5001 10347 36% 23 97376 3665 69%
c # 20.28 739 34 5 251 6008 11090 37% 21 97376 3665 69%
c - 20.71 696 33 6 269 6836 2470 37% 20 97376 3665 69%
c } 20.76 696 32 6 269 7002 2589 37% 20 97376 3665 69%
c [ 20.76 696 20 6 269 7002 2589 78% 18 97376 3665 69%
c - 21.27 696 22 7 270 8937 2465 59% 19 97376 3665 69%
c I 21.56 696 23 7 271 10011 3092 54% 20 97376 3665 69%
c - 22.08 696 23 8 273 11337 2680 50% 20 97376 3665 69%
c - 22.80 696 25 9 274 14038 2987 46% 22 97376 3665 69%
c 2 23.17 696 26 9 274 15001 5738 45% 23 97366 3665 69%
c p 25.13 696 26 9 274 15001 11960 45% 23 97366 3640 68%
c d 25.22 696 26 9 274 15001 11413 45% 23 97112 3639 68%
c d 25.24 696 26 9 274 15001 11411 45% 23 97111 3638 68%
c 
c  seconds   reductions    redundant   irredundant
c          MB    restarts         trail      variables
c           level    conflicts        glue        remaining
c 
c ] 25.27 696 26 9 274 15002 11412 45% 23 97111 3638 68%
c { 25.27 696 32 9 274 15002 11412 37% 20 97111 3638 68%
c B 25.32 696 32 9 274 15012 11421 37% 20 97111 3638 68%
c s 25.71 696 31 9 305 15774 11709 37% 20 95396 3638 68%
c v 26.97 696 31 9 305 15774 11709 37% 20 95336 3638 68%
c t 27.03 696 31 9 305 15774 11678 37% 20 95307 3638 68%
c e 27.29 697 31 9 305 15774 5622 37% 20 89618 670 13%
c s 27.37 697 31 9 305 15774 5622 37% 20 89203 670 13%
c - 28.19 697 28 10 305 17040 3651 73% 19 89203 670 13%
c - 29.12 697 24 11 326 20341 3715 73% 17 89203 670 13%
c W 29.38 697 24 11 326 21023 4047 73% 17 89203 670 13%
c - 30.07 697 23 12 408 23942 3743 73% 17 89203 670 13%
c - 32.56 697 24 13 712 27842 4604 73% 17 89203 670 13%
c F 32.73 697 23 13 712 28024 4762 73% 17 89203 670 13%
c 3 34.13 697 24 13 890 30001 6489 73% 17 89203 670 13%
c 2 34.15 697 24 13 890 30001 6499 73% 17 89202 670 13%
c p 34.63 697 24 13 890 30001 8152 73% 17 89202 670 13%
c } 34.93 697 24 13 894 31002 8668 73% 17 89202 670 13%
c [ 34.93 697 26 13 894 31002 8668 257% 23 89202 670 13%
c - 35.19 697 26 14 894 32043 4958 239% 22 89202 670 13%
c 
c  seconds   reductions    redundant    irredundant
c          MB     restarts        trail       variables
c           level     conflicts        glue       remaining
c 
c B 36.22 697 28 14 897 36029 7709 193% 24 89202 670 13%
c - 36.38 697 28 15 897 36543 5597 189% 24 89202 670 13%
c - 37.64 697 25 16 900 41345 5155 159% 22 89202 670 13%
c s 38.48 697 25 16 901 44002 6819 148% 21 88929 670 13%
c v 39.33 697 25 16 901 44002 6819 148% 21 88911 670 13%
c w 39.37 697 25 16 901 44002 6819 148% 21 88911 670 13%
c t 39.38 697 25 16 901 44002 6818 148% 21 88910 670 13%
c s 39.72 697 25 16 901 44002 6818 148% 21 88786 670 13%
c W 40.59 697 24 16 901 45032 7358 144% 21 88786 670 13%
c - 40.96 697 24 17 902 46446 5642 140% 21 88786 670 13%
c p 43.01 697 23 17 902 50004 9886 131% 20 88786 668 13%
c - 43.45 697 23 18 902 51847 6267 127% 20 88780 668 13%
c ] 43.68 697 23 18 902 53515 7164 123% 20 88780 668 13%
c 1 43.68 697 23 18 902 53515 7164 123% 20 88780 668 13%
c 
c --- [ writing output ] -----------------------------------------------------
c 
c writing simplified CNF to DIMACS file 'simp/12.cubes1221.adj.simp1'
c * 43.68 697 23 18 902 53515 7164 123% 20 88780 668 13%
c opening file to write 'simp/12.cubes1221.adj.simp1'
c writing 'p cnf 5320 88780' header
c closing file 'simp/12.cubes1221.adj.simp1'
c after writing 31700551 bytes 30.2 MB
c wrote 88780 clauses in 0.23 seconds process time
c 
c --- [ writing extension ] --------------------------------------------------
c 
c writing extension stack to 'simp/12.cubes1221.adj.ext1'
c opening file to write 'simp/12.cubes1221.adj.ext1'
c closing file 'simp/12.cubes1221.adj.ext1'
c after writing 175442 bytes 0.2 MB
c wrote 7890 witnesses in 0.00 seconds process time
c 
c --- [ result ] -------------------------------------------------------------
c 
s SATISFIABLE
c 
c --- [ run-time profiling ] -------------------------------------------------
c 
c process time taken by individual solving procedures
c (percentage relative to process time for solving)
c 
c        25.86   74.24% search
c        15.71   45.10% unstable
c         8.97   25.76% simplify
c         8.85   25.41% parse
c         8.62   24.76% stable
c         4.94   14.19% probe
c         2.18    6.27% vivify
c         1.13    3.23% lucky
c         0.91    2.60% elim
c         0.40    1.15% walk
c         0.39    1.12% subsume
c         0.08    0.22% ternary
c   =================================
c        34.83   79.31% solve
c 
c last line shows process time for solving
c (percentage relative to total process time)
c 
c --- [ statistics ] ---------------------------------------------------------
c 
c chronological:              8335        15.58 %  of conflicts
c conflicts:                 53515      1536.43    per second
c decisions:                105213      3020.69    per second
c eliminated:                 2968        55.79 %  of all variables
c fixed:                      1665        31.30 %  of all variables
c learned:                   52487        98.08 %  per conflict
c learned_lits:            8340892       100.00 %  learned literals
c minimized:                     0         0.00 %  learned literals
c shrunken:                6099163        73.12 %  learned literals
c minishrunken:             330364         3.96 %  learned literals
c propagations:            5541631         0.16 M  per second
c reduced:                   25415        47.49 %  per conflict
c rephased:                      9      5946.11    interval
c restarts:                    902        59.33    interval
c stabilizing:                   3        60.76 %  of conflicts
c substituted:                  19         0.36 %  of all variables
c subsumed:                  22938         1.12 %  of all clauses
c strengthened:               8883         0.43 %  of all clauses
c ternary:                    5130         0.60 %  of resolved
c vivified:                    105         0.01 %  of all clauses
c walked:                        2     26757.50    interval
c weakened:                   6225         2.99    average size
c 
c seconds are measured in process time for solving
c 
c --- [ resources ] ----------------------------------------------------------
c 
c total process time since initialization:        43.91    seconds
c total real time since initialization:           43.95    seconds
c maximum resident set size of process:          786.93    MB
c 
c --- [ shutting down ] ------------------------------------------------------
c 
c exit 10
WARNING! DIMACS header mismatch: wrong number of variables.
============================[ Problem Statistics ]=============================
|                                                                             |
|  Number of variables:          2726                                         |
|  Number of clauses:           88784                                         |
|  Parse time:                   0.46 s                                       |
|  Simplification time:          0.01 s                                       |
|                                                                             |
============================[ Search Statistics ]====================================================
| Conflicts |          ORIGINAL         |          LEARNT          | Num Sols |      SUBGRAPHS      |
|           |    Vars  Clauses Literals |    Limit  Clauses Lit/Cl |          | Canonical Noncanon. |
=====================================================================================================
|       101 |    2636    88785  6975757 |     2000      101    197 |        0 |        11         1 |
|       253 |    2636    88787  6975788 |     2000      253    128 |        0 |        25         3 |
|       480 |    2636    88789  6975824 |     2000      480    119 |        0 |        31         5 |
|       818 |    2636    88790  6975951 |     2000      818    105 |        0 |        38         6 |
|      1685 |    2636    89151  6981078 |     2000     1685     77 |        0 |        77       367 |
|      2554 |    2636    89261  6982887 |     3602     1556     46 |        0 |       159       477 |
|      4832 |    2636    90400  7002905 |     5004     2036     30 |        0 |       372      1616 |
|      6691 |    2636    90551  7005818 |     5004     3895     57 |        0 |       419      1767 |
|      9503 |    2636    90801  7010040 |     6306     4209     48 |        0 |       482      2017 |
|     13499 |    2636    90953  7012412 |     7555     5054     54 |        0 |       523      2169 |
|     19351 |    2636    91039  7014156 |     8785     7136     56 |        0 |       559      2255 |
|     28364 |    2636    91403  7020842 |    11200     6764     50 |        0 |       734      2619 |
|     41595 |    2636    91660  7024909 |    13603     8198     55 |        0 |       866      2876 |
|     63814 |    2636    94418  7062036 |    17207     8221     31 |        0 |      1424      5634 |
|     95133 |    2636    96545  7094103 |    20811    11944     40 |        0 |      1788      7761 |
|    141125 |    2636    98748  7124886 |    25611    12736     30 |        0 |      2490      9964 |
|    210982 |    2636   102921  7186542 |    30413    27795     60 |        0 |      3238     14137 |
|    321220 |    2636   114633  7330687 |    38811    19031     24 |        0 |      4867     25849 |
=====================================================================================================
Number of solutions   : 0
Canonical subgraphs   : 6159           (56 /sec)
          order  3    : 1              (166667 /sec)
          order  4    : 1              (500000 /sec)
          order  5    : 1              (250000 /sec)
          order  6    : 1              (55556 /sec)
          order  7    : 2              (10000 /sec)
          order  8    : 4              (2068 /sec)
          order  9    : 10             (473 /sec)
          order 10    : 41             (138 /sec)
          order 11    : 160            (58 /sec)
          order 12    : 876            (48 /sec)
          order 13    : 1547           (77 /sec)
          order 14    : 3295           (54 /sec)
          order 15    : 218            (31 /sec)
          order 16    : 2              (27 /sec)
          order 17    : 0              (-nan /sec)
          order 18    : 0              (-nan /sec)
          order 19    : 0              (-nan /sec)
          order 20    : 0              (-nan /sec)
          order 21    : 0              (-nan /sec)
Noncanonical subgraphs: 36939          (852 /sec)
          order  3    : 0              (-nan /sec)
          order  4    : 0              (-nan /sec)
          order  5    : 0              (-nan /sec)
          order  6    : 0              (-nan /sec)
          order  7    : 0              (-nan /sec)
          order  8    : 0              (-nan /sec)
          order  9    : 0              (-nan /sec)
          order 10    : 0              (-nan /sec)
          order 11    : 0              (-nan /sec)
          order 12    : 0              (-nan /sec)
          order 13    : 16935          (2188 /sec)
          order 14    : 9786           (2889 /sec)
          order 15    : 10202          (317 /sec)
          order 16    : 16             (212 /sec)
          order 17    : 0              (-nan /sec)
          order 18    : 0              (-nan /sec)
          order 19    : 0              (-nan /sec)
          order 20    : 0              (-nan /sec)
Canonicity checking   : 109.18 s
Noncanonicity checking: 43.3704 s
Total canonicity time : 152.55 s
database reductions   : 33
restarts              : 955
conflicts             : 393129         (1650 /sec)
decisions             : 534132         (0.00 % random) (2242 /sec)
propagations          : 15047870       (63164 /sec)
conflict literals     : 34397295       (51.95 % deleted)
actual reward         : 0.293847
Memory used           : 114.00 MB
CPU time              : 238.233 s

UNSATISFIABLE
